2 132
33 15
42 71
35 29
32 23
19 105
41 66
84 53
47 44
86 27
24 38
10 38
10 10
4 133
42 128
14 112
38 34
62 51
80 46
49 25
3 81
27 80
11 30
19 67
12 8
19 122
11 85
14 163
15 69
28 98
2 45
6 95
30 48
78 16
23 18
82 1
27 114
38 22
8 103
6 66
9 164
56 14
40 104
46 56
14 25
22 100
29 136
18 139
63 78
65 86
